
Value of objective function: 1.88725604

Actual values of the variables:
pL1_div_from_law          1.88726
comp_pos0                0.279438
comp_neg0                       0
comp_pos1                0.254507
comp_neg1                       0
comp_pos2                0.164968
comp_neg2                       0
comp_pos3                0.108372
comp_neg3                       0
comp_pos4                0.169072
comp_neg4                       0
comp_pos5                       0
comp_neg5                       0
comp_pos6                0.435415
comp_neg6                       0
comp_pos7                0.185333
comp_neg7                       0
comp_pos8                0.190943
comp_neg8                       0
comp_pos9               0.0139076
comp_neg9                       0
comp_pos10              0.0853001
comp_neg10                      0
comp_pos11                      0
comp_neg11                      0
comp_pos12                      0
comp_neg12                      0
comp_pos13                      0
comp_neg13                      0
z_c0_t0               1.32138e+10
p0_c0_t0              1.16886e+09
p1_c0_t0               1.0423e+08
p2_c0_t0              1.52733e+10
p3_c0_t0              3.59922e+08
diff0                 3.69244e+09
normdiff0                0.279438
z_c0_t1               1.47752e+10
p0_c0_t1              1.00552e+09
p1_c0_t1              1.16885e+08
p2_c0_t1              1.69903e+10
p3_c0_t1              4.22882e+08
diff1                  3.7604e+09
normdiff1                0.254507
z_c1_t0               1.65566e+10
p0_c1_t0               1.1818e+09
p1_c1_t0              1.33926e+08
p2_c1_t0              1.78145e+10
p3_c1_t0              1.57721e+08
diff2                 2.73131e+09
normdiff2                0.164968
z_c1_t1               1.94959e+10
p0_c1_t1              1.17911e+09
p1_c1_t1              1.90527e+08
p2_c1_t1               2.0088e+10
p3_c1_t1              1.51063e+08
diff3                 2.11282e+09
normdiff3                0.108372
z_c2_t0               7.24754e+09
p0_c2_t0              4.03216e+08
p1_c2_t0              5.46506e+07
p2_c2_t0              7.87561e+09
p3_c2_t0              1.39422e+08
diff4                 1.22536e+09
normdiff4                0.169072
z_c2_t1               7.97123e+09
p0_c2_t1              3.24054e+08
p1_c2_t1              6.38795e+07
p2_c2_t1               7.4727e+09
p3_c2_t1              1.10593e+08
diff5                           0
normdiff5                       0
z_c3_t0               1.22612e+10
p0_c3_t0              7.29513e+08
p1_c3_t0              9.34316e+07
p2_c3_t0               1.6187e+10
p3_c3_t0              5.89942e+08
diff6                 5.33871e+09
normdiff6                0.435415
z_c3_t1               1.42798e+10
p0_c3_t1              8.16899e+08
p1_c3_t1              9.56852e+07
p2_c3_t1              1.55718e+10
p3_c3_t1              4.41927e+08
diff7                 2.64651e+09
normdiff7                0.185333
z_c4_t0               7.97197e+09
p0_c4_t0              3.21989e+08
p1_c4_t0              1.04551e+08
p2_c4_t0              8.95569e+09
p3_c4_t0              1.11931e+08
diff8                 1.52219e+09
normdiff8                0.190943
z_c4_t1                8.9819e+09
p0_c4_t1              3.29621e+08
p1_c4_t1              9.62536e+07
p2_c4_t1              8.61104e+09
p3_c4_t1              6.99008e+07
diff9                 1.24917e+08
normdiff9               0.0139076
z_c5_t0               1.00642e+10
p0_c5_t0              5.67816e+08
p1_c5_t0              8.82169e+07
p2_c5_t0              1.02163e+10
p3_c5_t0              5.03208e+07
diff10                8.58474e+08
normdiff10              0.0853001
z_c5_t1                1.2016e+10
p0_c5_t1              4.14776e+08
p1_c5_t1              8.82549e+07
p2_c5_t1              1.13887e+10
p3_c5_t1              1.24249e+08
diff11                          0
normdiff11                      0
z_c6_t0               1.81204e+10
p0_c6_t0              1.03679e+09
p1_c6_t0              1.11448e+08
p2_c6_t0              1.68079e+10
p3_c6_t0              1.64267e+08
diff12                          0
normdiff12                      0
z_c6_t1               2.06345e+10
p0_c6_t1              1.10368e+09
p1_c6_t1              1.03172e+08
p2_c6_t1              1.93221e+10
p3_c6_t1              1.05536e+08
diff13                          0
normdiff13                      0
